MAX
0.0001z1 + 0.0001z2 + 0.0001z3 + 0.0001z4 + z5
SUBJECT TO
x1_1 + x1_2 + x1_3 + x1_4 + x1_5 + x1_6 + x1_7 + x1_8 + x1_9 + x1_10 = 1
x2_1 + x2_2 + x2_3 + x2_4 + x2_5 + x2_6 + x2_7 + x2_8 + x2_9 + x2_10 = 1
x3_1 + x3_2 + x3_3 + x3_4 + x3_5 + x3_6 + x3_7 + x3_8 + x3_9 + x3_10 = 1
x4_1 + x4_2 + x4_3 + x4_4 + x4_5 + x4_6 + x4_7 + x4_8 + x4_9 + x4_10 = 1
x5_1 + x5_2 + x5_3 + x5_4 + x5_5 + x5_6 + x5_7 + x5_8 + x5_9 + x5_10 = 1
x6_1 + x6_2 + x6_3 + x6_4 + x6_5 + x6_6 + x6_7 + x6_8 + x6_9 + x6_10 = 1
x7_1 + x7_2 + x7_3 + x7_4 + x7_5 + x7_6 + x7_7 + x7_8 + x7_9 + x7_10 = 1
x8_1 + x8_2 + x8_3 + x8_4 + x8_5 + x8_6 + x8_7 + x8_8 + x8_9 + x8_10 = 1
x9_1 + x9_2 + x9_3 + x9_4 + x9_5 + x9_6 + x9_7 + x9_8 + x9_9 + x9_10 = 1
x10_1 + x10_2 + x10_3 + x10_4 + x10_5 + x10_6 + x10_7 + x10_8 + x10_9 + x10_10 = 1
x1_1 + x2_1 + x3_1 + x4_1 + x5_1 + x6_1 + x7_1 + x8_1 + x9_1 + x10_1 = 1
x1_2 + x2_2 + x3_2 + x4_2 + x5_2 + x6_2 + x7_2 + x8_2 + x9_2 + x10_2 = 1
x1_3 + x2_3 + x3_3 + x4_3 + x5_3 + x6_3 + x7_3 + x8_3 + x9_3 + x10_3 = 1
x1_4 + x2_4 + x3_4 + x4_4 + x5_4 + x6_4 + x7_4 + x8_4 + x9_4 + x10_4 = 1
x1_5 + x2_5 + x3_5 + x4_5 + x5_5 + x6_5 + x7_5 + x8_5 + x9_5 + x10_5 = 1
x1_6 + x2_6 + x3_6 + x4_6 + x5_6 + x6_6 + x7_6 + x8_6 + x9_6 + x10_6 = 1
x1_7 + x2_7 + x3_7 + x4_7 + x5_7 + x6_7 + x7_7 + x8_7 + x9_7 + x10_7 = 1
x1_8 + x2_8 + x3_8 + x4_8 + x5_8 + x6_8 + x7_8 + x8_8 + x9_8 + x10_8 = 1
x1_9 + x2_9 + x3_9 + x4_9 + x5_9 + x6_9 + x7_9 + x8_9 + x9_9 + x10_9 = 1
x1_10 + x2_10 + x3_10 + x4_10 + x5_10 + x6_10 + x7_10 + x8_10 + x9_10 + x10_10 = 1
-2x1_1-16x1_2-9x1_3-3x1_4-13x1_5-16x1_6-3x1_7-6x1_8-1x1_9-4x1_10-11x2_1-10x2_2-4x2_3-13x2_4-10x2_5-3x2_6-11x2_7-2x2_8-9x2_9-3x2_10-9x3_1-17x3_2-20x3_3-7x3_4-7x3_5-5x3_6-15x3_7-19x3_8-3x3_9-13x3_10-5x4_1-10x4_2-14x4_3-13x4_4-1x4_5-7x4_6-18x4_7-1x4_8-20x4_9-13x4_10-8x5_1-10x5_2-15x5_3-2x5_4-4x5_5-19x5_6-6x5_7-3x5_8-6x5_9-11x5_10-19x6_1-17x6_2-9x6_3-1x6_4-6x6_5-12x6_6-4x6_7-15x6_8-2x6_9-9x6_10-20x7_1-8x7_2-20x7_3-2x7_4-17x7_5-11x7_6-7x7_7-15x7_8-14x7_9-2x7_10-11x8_1-6x8_2-18x8_3-11x8_4-15x8_5-3x8_6-20x8_7-6x8_8-17x8_9-16x8_10-18x9_1-11x9_2-18x9_3-16x9_4-19x9_5-7x9_6-4x9_7-20x9_8-3x9_9-11x9_10-17x10_1-13x10_2-14x10_3-7x10_4-10x10_5-11x10_6-1x10_7-19x10_8-4x10_9-16x10_10 - z1 = 0
-13x1_1-19x1_2-14x1_3-1x1_4-2x1_5-1x1_6-20x1_7-11x1_8-7x1_9-4x1_10-12x2_1-2x2_2-15x2_3-17x2_4-11x2_5-13x2_6-1x2_7-15x2_8-7x2_9-15x2_10-8x3_1-13x3_2-8x3_3-6x3_4-18x3_5-7x3_6-1x3_7-4x3_8-8x3_9-6x3_10-12x4_1-8x4_2-15x4_3-2x4_4-3x4_5-3x4_6-5x4_7-12x4_8-17x4_9-11x4_10-17x5_1-19x5_2-15x5_3-8x5_4-9x5_5-3x5_6-12x5_7-17x5_8-2x5_9-17x5_10-10x6_1-3x6_2-19x6_3-2x6_4-8x6_5-12x6_6-13x6_7-15x6_8-4x6_9-12x6_10-6x7_1-1x7_2-9x7_3-13x7_4-16x7_5-1x7_6-7x7_7-11x7_8-18x7_9-17x7_10-6x8_1-5x8_2-3x8_3-7x8_4-15x8_5-9x8_6-11x8_7-16x8_8-9x8_9-10x8_10-7x9_1-11x9_2-17x9_3-10x9_4-15x9_5-10x9_6-11x9_7-20x9_8-5x9_9-1x9_10-5x10_1-3x10_2-19x10_3-16x10_4-4x10_5-7x10_6-5x10_7-16x10_8-3x10_9-10x10_10 - z2 = 0
-17x1_1-6x1_2-20x1_3-4x1_4-19x1_5-13x1_6-3x1_7-2x1_8-17x1_9-20x1_10-4x2_1-1x2_2-1x2_3-17x2_4-4x2_5-12x2_6-1x2_7-16x2_8-5x2_9-5x2_10-4x3_1-13x3_2-18x3_3-10x3_4-3x3_5-11x3_6-15x3_7-14x3_8-1x3_9-9x3_10-14x4_1-18x4_2-11x4_3-13x4_4-3x4_5-18x4_6-4x4_7-8x4_8-12x4_9-3x4_10-14x5_1-12x5_2-15x5_3-6x5_4-1x5_5-11x5_6-9x5_7-14x5_8-1x5_9-12x5_10-5x6_1-7x6_2-4x6_3-1x6_4-3x6_5-8x6_6-19x6_7-13x6_8-5x6_9-15x6_10-5x7_1-12x7_2-15x7_3-2x7_4-9x7_5-19x7_6-10x7_7-13x7_8-11x7_9-16x7_10-9x8_1-11x8_2-9x8_3-9x8_4-15x8_5-15x8_6-12x8_7-16x8_8-11x8_9-2x8_10-7x9_1-10x9_2-1x9_3-8x9_4-1x9_5-6x9_6-6x9_7-4x9_8-18x9_9-12x9_10-3x10_1-10x10_2-1x10_3-18x10_4-13x10_5-8x10_6-9x10_7-3x10_8-8x10_9-5x10_10 - z3 = 0
-7x1_1-9x1_2-7x1_3-14x1_4-11x1_5-1x1_6-9x1_7-6x1_8-17x1_9-13x1_10-11x2_1-1x2_2-19x2_3-16x2_4-5x2_5-11x2_6-3x2_7-2x2_8-16x2_9-12x2_10-17x3_1-12x3_2-20x3_3-1x3_4-9x3_5-15x3_6-18x3_7-2x3_8-10x3_9-14x3_10-2x4_1-4x4_2-15x4_3-1x4_4-4x4_5-10x4_6-20x4_7-10x4_8-8x4_9-7x4_10-15x5_1-20x5_2-14x5_3-13x5_4-15x5_5-10x5_6-4x5_7-6x5_8-19x5_9-3x5_10-20x6_1-9x6_2-6x6_3-15x6_4-4x6_5-20x6_6-16x6_7-16x6_8-6x6_9-11x6_10-6x7_1-6x7_2-7x7_3-5x7_4-1x7_5-9x7_6-16x7_7-4x7_8-4x7_9-18x7_10-1x8_1-10x8_2-2x8_3-12x8_4-13x8_5-1x8_6-15x8_7-5x8_8-11x8_9-12x8_10-16x9_1-6x9_2-10x9_3-6x9_4-12x9_5-4x9_6-3x9_7-14x9_8-20x9_9-8x9_10-16x10_1-3x10_2-8x10_3-13x10_4-8x10_5-14x10_6-2x10_7-10x10_8-1x10_9-11x10_10 - z4 = 0
-13x1_1-14x1_2-5x1_3-1x1_4-2x1_5-7x1_6-10x1_7-8x1_8-15x1_9-3x1_10-18x2_1-1x2_2-19x2_3-16x2_4-3x2_5-16x2_6-18x2_7-5x2_8-6x2_9-1x2_10-18x3_1-3x3_2-16x3_3-19x3_4-9x3_5-19x3_6-6x3_7-14x3_8-18x3_9-19x3_10-10x4_1-6x4_2-6x4_3-9x4_4-4x4_5-7x4_6-18x4_7-14x4_8-1x4_9-20x4_10-11x5_1-10x5_2-3x5_3-5x5_4-12x5_5-16x5_6-18x5_7-14x5_8-11x5_9-1x5_10-16x6_1-19x6_2-10x6_3-19x6_4-7x6_5-18x6_6-16x6_7-15x6_8-17x6_9-18x6_10-17x7_1-15x7_2-5x7_3-14x7_4-11x7_5-12x7_6-5x7_7-6x7_8-19x7_9-4x7_10-19x8_1-5x8_2-19x8_3-9x8_4-15x8_5-10x8_6-17x8_7-14x8_8-17x8_9-14x8_10-1x9_1-11x9_2-6x9_3-16x9_4-18x9_5-12x9_6-4x9_7-2x9_8-5x9_9-11x9_10-2x10_1-19x10_2-15x10_3-4x10_4-7x10_5-11x10_6-3x10_7-8x10_8-9x10_9-6x10_10 - z5 = 0
BOUNDS
z1 free
z2 free
z3 free
z4 free
z5 free
BINARIES
x1_1
x1_2
x1_3
x1_4
x1_5
x1_6
x1_7
x1_8
x1_9
x1_10
x2_1
x2_2
x2_3
x2_4
x2_5
x2_6
x2_7
x2_8
x2_9
x2_10
x3_1
x3_2
x3_3
x3_4
x3_5
x3_6
x3_7
x3_8
x3_9
x3_10
x4_1
x4_2
x4_3
x4_4
x4_5
x4_6
x4_7
x4_8
x4_9
x4_10
x5_1
x5_2
x5_3
x5_4
x5_5
x5_6
x5_7
x5_8
x5_9
x5_10
x6_1
x6_2
x6_3
x6_4
x6_5
x6_6
x6_7
x6_8
x6_9
x6_10
x7_1
x7_2
x7_3
x7_4
x7_5
x7_6
x7_7
x7_8
x7_9
x7_10
x8_1
x8_2
x8_3
x8_4
x8_5
x8_6
x8_7
x8_8
x8_9
x8_10
x9_1
x9_2
x9_3
x9_4
x9_5
x9_6
x9_7
x9_8
x9_9
x9_10
x10_1
x10_2
x10_3
x10_4
x10_5
x10_6
x10_7
x10_8
x10_9
x10_10
END